c "134633.clq"
p edge 139 540
e 1 5
e 1 6
e 1 8
e 1 9
e 1 12
e 1 13
e 1 26
e 1 27
e 1 31
e 1 32
e 1 41
e 1 42
e 1 45
e 1 51
e 1 60
e 1 64
e 1 70
e 1 82
e 1 85
e 1 92
e 1 95
e 1 117
e 1 124
e 1 130
e 1 133
e 2 5
e 2 6
e 2 7
e 2 10
e 2 13
e 2 15
e 2 21
e 2 24
e 2 28
e 2 32
e 2 55
e 2 66
e 2 80
e 2 119
e 3 5
e 3 7
e 3 8
e 3 12
e 3 17
e 3 18
e 3 22
e 3 23
e 3 25
e 3 29
e 3 42
e 3 44
e 3 49
e 3 64
e 3 78
e 3 93
e 3 116
e 3 127
e 4 5
e 4 6
e 4 9
e 4 13
e 4 14
e 4 22
e 4 57
e 4 59
e 4 65
e 4 80
e 4 112
e 4 115
e 4 121
e 5 6
e 5 7
e 5 8
e 5 9
e 5 10
e 5 14
e 5 21
e 5 23
e 5 26
e 5 35
e 5 38
e 5 46
e 5 51
e 5 53
e 5 54
e 5 58
e 5 65
e 5 66
e 5 74
e 5 77
e 5 78
e 5 89
e 5 94
e 5 95
e 5 97
e 5 108
e 5 113
e 5 116
e 5 135
e 6 7
e 6 9
e 6 14
e 6 15
e 6 25
e 6 28
e 6 32
e 6 41
e 6 51
e 6 53
e 6 58
e 6 68
e 6 69
e 6 77
e 6 96
e 6 104
e 6 136
e 7 8
e 7 10
e 7 11
e 7 16
e 7 17
e 7 18
e 7 19
e 7 20
e 7 34
e 7 37
e 7 47
e 7 73
e 7 84
e 7 96
e 7 116
e 7 117
e 7 121
e 7 123
e 7 133
e 7 137
e 8 11
e 8 12
e 8 13
e 8 16
e 8 19
e 8 31
e 8 43
e 8 47
e 8 60
e 8 66
e 8 70
e 8 109
e 8 134
e 9 10
e 9 11
e 9 15
e 9 17
e 9 18
e 9 19
e 9 21
e 9 26
e 9 30
e 9 37
e 9 39
e 9 50
e 9 53
e 9 55
e 9 57
e 9 61
e 9 63
e 9 71
e 9 72
e 9 77
e 9 84
e 9 96
e 9 114
e 9 120
e 9 129
e 9 132
e 10 11
e 10 20
e 10 28
e 10 31
e 10 34
e 10 38
e 10 43
e 10 48
e 10 57
e 10 84
e 10 101
e 11 12
e 11 18
e 11 22
e 11 33
e 11 40
e 11 43
e 11 52
e 11 59
e 11 62
e 11 72
e 11 85
e 11 91
e 11 93
e 11 119
e 11 128
e 12 15
e 12 17
e 12 20
e 12 25
e 12 27
e 12 33
e 12 52
e 12 55
e 12 57
e 12 61
e 12 73
e 12 91
e 12 101
e 12 119
e 13 14
e 13 16
e 13 23
e 13 24
e 13 27
e 13 30
e 13 36
e 13 63
e 13 66
e 13 80
e 13 97
e 13 128
e 14 16
e 14 40
e 14 56
e 14 68
e 14 76
e 14 87
e 14 89
e 14 91
e 14 94
e 14 101
e 14 103
e 15 27
e 15 37
e 15 95
e 15 102
e 15 114
e 15 117
e 16 67
e 16 105
e 16 118
e 17 19
e 17 22
e 17 24
e 17 30
e 17 35
e 17 54
e 17 59
e 17 74
e 17 100
e 17 101
e 17 106
e 17 112
e 17 125
e 18 29
e 18 35
e 18 36
e 18 44
e 18 45
e 18 56
e 18 92
e 18 105
e 18 108
e 18 128
e 19 20
e 19 26
e 19 70
e 19 72
e 19 83
e 19 110
e 19 112
e 19 126
e 20 21
e 20 23
e 20 29
e 20 31
e 20 35
e 20 38
e 20 41
e 20 49
e 20 52
e 20 56
e 20 59
e 20 61
e 20 84
e 20 87
e 20 100
e 20 105
e 20 107
e 20 118
e 20 125
e 21 24
e 21 25
e 21 28
e 21 36
e 21 39
e 21 45
e 21 46
e 21 60
e 22 37
e 22 46
e 22 49
e 22 71
e 22 78
e 22 126
e 22 132
e 22 134
e 23 40
e 23 99
e 24 52
e 24 104
e 24 110
e 24 130
e 25 29
e 25 32
e 25 34
e 25 36
e 25 42
e 25 50
e 25 58
e 25 60
e 25 62
e 25 65
e 25 81
e 25 82
e 25 106
e 25 107
e 25 108
e 25 112
e 25 120
e 25 127
e 25 129
e 26 67
e 26 135
e 27 30
e 27 39
e 27 41
e 27 47
e 27 64
e 27 71
e 27 107
e 27 131
e 27 134
e 27 138
e 28 34
e 28 90
e 28 94
e 28 123
e 28 136
e 29 33
e 29 44
e 29 47
e 29 58
e 29 61
e 29 83
e 29 90
e 30 63
e 30 79
e 30 121
e 31 33
e 31 39
e 31 44
e 31 50
e 31 69
e 31 124
e 31 126
e 31 134
e 32 38
e 32 128
e 34 93
e 34 104
e 34 115
e 35 49
e 35 54
e 35 69
e 35 88
e 35 122
e 35 131
e 36 40
e 36 42
e 36 79
e 36 81
e 36 88
e 36 93
e 37 48
e 37 50
e 37 53
e 37 54
e 37 86
e 37 106
e 37 110
e 37 122
e 37 127
e 38 43
e 38 51
e 38 65
e 38 75
e 38 76
e 38 103
e 38 114
e 38 137
e 39 67
e 39 73
e 39 79
e 39 83
e 40 130
e 41 86
e 42 48
e 42 75
e 42 83
e 42 86
e 42 87
e 42 111
e 43 56
e 43 75
e 43 104
e 43 109
e 44 45
e 44 86
e 44 92
e 45 46
e 45 48
e 45 81
e 45 82
e 45 136
e 46 99
e 46 127
e 47 68
e 47 76
e 47 137
e 48 73
e 49 75
e 49 111
e 49 114
e 50 55
e 52 97
e 52 109
e 53 80
e 54 62
e 54 106
e 54 113
e 55 98
e 56 70
e 56 74
e 56 81
e 56 94
e 57 62
e 57 64
e 57 68
e 57 69
e 57 77
e 57 85
e 57 88
e 57 125
e 58 82
e 58 88
e 60 63
e 60 71
e 60 72
e 60 99
e 60 100
e 60 110
e 60 122
e 60 123
e 61 78
e 62 76
e 63 74
e 63 92
e 63 116
e 65 131
e 66 67
e 69 109
e 70 99
e 70 102
e 71 89
e 71 95
e 71 100
e 71 115
e 71 124
e 71 126
e 73 79
e 73 85
e 73 91
e 73 103
e 73 111
e 74 121
e 74 139
e 75 87
e 78 113
e 79 108
e 80 90
e 80 139
e 81 90
e 81 97
e 81 98
e 81 102
e 81 120
e 81 139
e 83 89
e 83 98
e 83 135
e 84 107
e 84 133
e 86 111
e 86 124
e 88 132
e 89 98
e 89 132
e 89 135
e 91 105
e 92 103
e 92 133
e 93 96
e 93 117
e 95 120
e 96 137
e 98 139
e 99 102
e 100 130
e 100 138
e 101 129
e 101 138
e 103 122
e 105 113
e 106 115
e 107 119
e 110 118
e 110 129
e 111 131
e 115 123
e 116 118
e 118 125
e 121 136
e 133 138
